
******************************************************************************
This program contains Ipopt, a library for large-scale nonlinear optimization.
 Ipopt is released as open source code under the Eclipse Public License (EPL).
         For more information visit http://projects.coin-or.org/Ipopt
******************************************************************************

This is Ipopt version 3.12.6, running with linear solver ma57.

Number of nonzeros in equality constraint Jacobian...:        0
Number of nonzeros in inequality constraint Jacobian.:        0
Number of nonzeros in Lagrangian Hessian.............:     5000

Total number of variables............................:     5000
                     variables with only lower bounds:        0
                variables with lower and upper bounds:        0
                     variables with only upper bounds:        0
Total number of equality constraints.................:        0
Total number of inequality constraints...............:        0
        inequality constraints with only lower bounds:        0
   inequality constraints with lower and upper bounds:        0
        inequality constraints with only upper bounds:        0

iter    objective    inf_pr   inf_du lg(mu)  ||d||  lg(rg) alpha_du alpha_pr  ls
   0  6.2406304e+17 0.00e+00 4.99e+03  -1.0 0.00e+00    -  0.00e+00 0.00e+00   0
   1  1.2328542e+17 0.00e+00 1.48e+03  -1.0 1.67e+03  -4.0 1.00e+00 1.00e+00f  1
   2  2.4354705e+16 0.00e+00 4.38e+02  -1.0 1.11e+03  -4.5 1.00e+00 1.00e+00f  1
   3  4.8111069e+15 0.00e+00 1.30e+02  -1.0 7.40e+02  -5.0 1.00e+00 1.00e+00f  1
   4  9.5038667e+14 0.00e+00 3.85e+01  -1.0 4.94e+02  -5.4 1.00e+00 1.00e+00f  1
   5  1.8773730e+14 0.00e+00 1.14e+01  -1.0 3.29e+02  -5.9 1.00e+00 1.00e+00f  1
   6  3.7084890e+13 0.00e+00 3.38e+00  -1.0 2.19e+02  -6.4 1.00e+00 1.00e+00f  1
   7  7.3255553e+12 0.00e+00 1.00e+00  -1.0 1.46e+02  -6.9 1.00e+00 1.00e+00f  1
   8  1.4470448e+12 0.00e+00 2.97e-01  -1.0 9.75e+01  -7.3 1.00e+00 1.00e+00f  1
   9  2.8583918e+11 0.00e+00 8.79e-02  -1.7 6.50e+01  -7.8 1.00e+00 1.00e+00f  1
iter    objective    inf_pr   inf_du lg(mu)  ||d||  lg(rg) alpha_du alpha_pr  ls
  10  5.6462532e+10 0.00e+00 2.60e-02  -2.5 4.33e+01  -8.3 1.00e+00 1.00e+00f  1
  11  1.1153163e+10 0.00e+00 7.72e-03  -3.8 2.89e+01  -8.8 1.00e+00 1.00e+00f  1
  12  2.2031042e+09 0.00e+00 2.29e-03  -3.8 1.93e+01  -9.2 1.00e+00 1.00e+00f  1
  13  4.3518260e+08 0.00e+00 6.78e-04  -3.8 1.28e+01  -9.7 1.00e+00 1.00e+00f  1
  14  8.5962223e+07 0.00e+00 2.01e-04  -5.7 8.56e+00 -10.2 1.00e+00 1.00e+00f  1
  15  1.6980226e+07 0.00e+00 5.95e-05  -5.7 5.71e+00 -10.7 1.00e+00 1.00e+00f  1
  16  3.3541237e+06 0.00e+00 1.76e-05  -5.7 3.80e+00 -11.2 1.00e+00 1.00e+00f  1
  17  6.6254368e+05 0.00e+00 5.22e-06  -8.6 2.54e+00 -11.6 1.00e+00 1.00e+00f  1
  18  1.3087294e+05 0.00e+00 1.55e-06  -8.6 1.69e+00 -12.1 1.00e+00 1.00e+00f  1
  19  2.5851460e+04 0.00e+00 4.58e-07  -8.6 1.13e+00 -12.6 1.00e+00 1.00e+00f  1
iter    objective    inf_pr   inf_du lg(mu)  ||d||  lg(rg) alpha_du alpha_pr  ls
  20  5.1064637e+03 0.00e+00 1.36e-07  -8.6 7.52e-01 -13.1 1.00e+00 1.00e+00f  1
  21  1.0086845e+03 0.00e+00 4.03e-08  -8.6 5.01e-01 -13.5 1.00e+00 1.00e+00f  1
  22  1.9924638e+02 0.00e+00 1.19e-08  -8.6 3.34e-01 -14.0 1.00e+00 1.00e+00f  1
  23  3.9357318e+01 0.00e+00 3.53e-09 -12.9 2.23e-01 -14.5 1.00e+00 1.00e+00f  1
  24  7.7742862e+00 0.00e+00 1.05e-09 -12.9 1.48e-01 -15.0 1.00e+00 1.00e+00f  1
  25  1.5356616e+00 0.00e+00 3.10e-10 -12.9 9.90e-02 -15.5 1.00e+00 1.00e+00f  1
  26  3.0334060e-01 0.00e+00 9.19e-11 -12.9 6.60e-02 -15.9 1.00e+00 1.00e+00f  1
  27  5.9919134e-02 0.00e+00 2.72e-11 -12.9 4.40e-02 -16.4 1.00e+00 1.00e+00f  1
  28  1.1835879e-02 0.00e+00 8.07e-12 -12.9 2.93e-02 -16.9 1.00e+00 1.00e+00f  1
  29  2.3379515e-03 0.00e+00 2.39e-12 -12.9 1.96e-02 -17.4 1.00e+00 1.00e+00f  1
iter    objective    inf_pr   inf_du lg(mu)  ||d||  lg(rg) alpha_du alpha_pr  ls
  30  4.6181758e-04 0.00e+00 7.08e-13 -12.9 1.30e-02 -17.8 1.00e+00 1.00e+00f  1
  31  9.1223228e-05 0.00e+00 2.10e-13 -13.0 8.69e-03 -18.3 1.00e+00 1.00e+00f  1
  32  1.8019403e-05 0.00e+00 6.22e-14 -13.0 5.79e-03 -18.8 1.00e+00 1.00e+00f  1
  33  3.5593884e-06 0.00e+00 1.84e-14 -13.0 3.86e-03 -19.3 1.00e+00 1.00e+00f  1

Number of Iterations....: 33

                                   (scaled)                 (unscaled)
Objective...............:   3.5593883640640035e-14    3.5593883640640034e-06
Dual infeasibility......:   1.8428967965707352e-14    1.8428967965707352e-06
Constraint violation....:   0.0000000000000000e+00    0.0000000000000000e+00
Complementarity.........:   0.0000000000000000e+00    0.0000000000000000e+00
Overall NLP error.......:   1.8428967965707352e-14    1.8428967965707352e-06


Number of objective function evaluations             = 34
Number of objective gradient evaluations             = 34
Number of equality constraint evaluations            = 0
Number of inequality constraint evaluations          = 0
Number of equality constraint Jacobian evaluations   = 0
Number of inequality constraint Jacobian evaluations = 0
Number of Lagrangian Hessian evaluations             = 33
Total CPU secs in IPOPT (w/o function evaluations)   =      0.100
Total CPU secs in NLP function evaluations           =      0.017

EXIT: Solved To Acceptable Level.

 ** SUBROUTINE CUTEST_csetup: Warning. The problem has no general constraints. 
 ** Other tools may be preferable ** 

************************ CUTEst statistics ************************


 Package used            :  IPOPT
 Problem                 :  DQRTIC    
 # variables             =            5000
 # constraints           =               0
 # objective functions   =        0.6900000E+02
 # objective gradients   =        0.3500000E+02
 # objective Hessians    =        0.3400000E+02
 # Hessian-vector prdct  =        0.0000000E+00
 # constraints functions =        0.0000000E+00
 # constraints gradients =        0.0000000E+00
 # constraints Hessians  =        0.0000000E+00
 Exit code               =               1
 Final f                 =   0.3559388E-05
 Set up time             =            0.07 seconds
 Solve time              =            0.29 seconds


******************************************************************

System Time =       0.0909999982 s.
